DIMENSION : 6
EDGE_WEIGHT_TYPE : EUC_2D
NODE_COORD_SECTION

1 459543.5673893673 122487.88288
2 459850.9305281246 121931.41312
3 459750.2866381837 123747.05088000001
4 459204.82845455897 121945.856
5 458910.45292578934 122626.848
6 458961.81514049193 123527.18912
EOF
